letting initialStacks = [3, 1, 44, 6, 17, 41, 12, 28, 37, 25, 50, 33, 42, 5, 9, 45, 30, 22, 35, 48, 49, 46, 43, 16, 13, 23, 24, 40, 10, 19, 21, 26, 14, 34, 27, 7, 38, 39, 20, 36, 15, 8, 31, 29, 32, 2, 18, 47, 11, 4, 51]
